NAME : traveling-santa-2018-prime-paths.29241.tour
COMMENT : Length = 29241
COMMENT : Found by LKH [Keld Helsgaun] Sun Jun 12 20:00:27 2022
TYPE : TOUR
DIMENSION : 100
TOUR_SECTION
1
41
28
9
46
26
37
40
24
18
100
35
36
90
99
87
4
93
15
94
7
8
30
77
81
65
71
80
6
68
56
62
64
96
49
79
98
59
13
63
10
76
55
75
67
14
97
25
32
86
17
33
51
57
69
2
19
42
84
73
39
11
47
27
78
74
34
52
54
16
60
29
88
92
70
72
3
43
22
89
50
5
12
85
48
53
66
95
82
31
91
44
20
61
38
23
21
58
45
83
-1
EOF
